M+/Instances/S3-5-M+/S3-15-5-3-l-M+.txt
     300       5    0.15
       3       1       1       1       2      15       3       7       2      10       3
       2       3       2       3       1       1       5       5      11       1       2
       1       1       1       3       2       4       1      16       5      12       3
       2       1       2       1       1       3       9       9       3       5       3
       1       2       1       2       3      13       3      13       4       1       2
       3       3       3       2       1      16      10       2       7      16       2
       2       3       2       1       1       4       0       7       4       5       3
       1       1       2       2       3       3      11       1       6      10       3
       3       2       1       2       1       9       5       1       9      12       3
       1       3       3       1       1       0       8      16       6      12       2
       3       3       1       3       2      14      14       1      14       0       2
       3       3       1       2       2       3       4       6      10      16       2
       3       1       2       3       1       2      13       1      10      14       3
       1       1       1       3       2      10       9       8      14       7       2
       2       1       2       1       2       0       9       4      14      15       2
       1       3       2       2       2       6      14       4      12       5       2
       3       2       1       1       3       9       6       2      16      13       2
       1       1       2       3       1       8      10       4       6       9       3
       1       3       3       1       1       2       8       7      11      10       3
       2       1       3       1       1       9       8      12      11      15       3
       3       2       1       3       1       8       9       4       3      15       3
       3       1       3       3       3       0       3      12      15      14       3
       3       1       3       3       3       1       1      15      15       6       2
       3       3       1       3       2       2      13       2      10       9       2
       3       3       1       2       3      12       8      12       7       6       2
       3       3       1       2       3      14       1       3      16       8       3
       2       3       3       1       3       3      13       8      10      14       2
       1       3       3       3       2      16       9      15       6       2       2
       3       3       1       1       3       2       4       5      16      14       3
       3       1       2       2       2       4      13      11       8      14       2
       3       3       1       1       2       1       4       4       4       6       3
       2       1       3       2       2       5       3      15      16       3       3
       3       3       3       3       2      13       9      15      15       9       3
       3       1       3       2       2       9       1       9      13       1       2
       3       2       3       2       2      11       1      14       5      13       3
       2       3       3       2       3      11       9       3      16      16       2
       1       3       1       3       3      13      10       6      16      16       2
       2       3       3       2       2       6       1       7       7      10       3
       2       1       2       1       1      13       5       1      11       2       2
       3       1       3       2       3      11       2       8       2      15       3
       1       1       3       3       1       7       1      10       5      13       3
       3       3       1       2       2      13      15      15       7      15       3
       2       2       1       3       1      15      10       4      11       7       3
       1       1       2       2       3       6       4       3       1       6       3
       2       2       2       2       3       3      10      16       7      15       3
       1       3       3       3       3      10       5      12       4       6       3
       1       1       2       3       1       0       8      12      13       4       3
       1       3       2       3       2       9      13      14       9      15       2
       1       3       1       3       2       4      15       4      16      12       3
       1       1       2       3       3      16       4      12       5       2       2
       3       2       3       1       1      13      14      16       9       8       2
       2       2       3       1       3      15      10      11       5       2       2
       3       1       2       2       3       5       8      13       1      13       3
       3       2       1       3       2      12      12      10      11      12       2
       2       3       1       1       2      15      14      15       2       9       2
       2       3       2       3       3      11       5       6       8      15       3
       2       3       2       2       2       8      15       7       4      10       2
       1       3       1       2       3      11      12       2      10      13       2
       1       2       1       1       2      13       3       3      15       5       2
       2       2       3       2       3       3       6       8      12       8       3
       1       1       1       1       3       6       2      13      16      10       2
       3       2       2       3       2      13      16       0      15      13       3
       3       3       2       3       1      10       6       9       4      15       2
       1       2       2       2       2       9       8       1       2       6       2
       2       2       3       1       1       1       4      16      14      11       3
       2       1       2       2       1      16       5      13       3       1       3
       2       2       2       2       1       0       2      13      10      16       3
       1       2       1       1       1      16      11       0       2       7       3
       3       1       2       1       2       2       5       3      14      13       2
       1       1       1       2       1      14       8      12       9      11       2
       2       2       3       3       3       9      14       1       5      14       3
       2       3       2       1       3       1      12      15       9       6       3
       3       1       2       1       1      15      12       4       7      16       2
       2       3       1       2       3      12      16       6       7       5       2
       2       3       1       2       3       4       8       4       4       2       2
       3       1       1       3       1      10       3       9       6       2       2
       3       2       3       1       2      13      10      12       5      12       2
       1       3       2       1       2      16      11      10       6       3       3
       1       2       2       2       1      16       7      13      11       2       2
       1       2       1       1       1       7      10      11       4       3       2
       2       3       2       2       3      13       7      12      14      16       3
       2       1       2       2       1       0       6      16      13      13       2
       2       2       2       1       1       1       3      14      12       4       2
       3       3       2       3       3       5       5      15       3       2       3
       3       2       1       1       3      15       9      15       7       1       2
       2       2       1       2       3      15       5       8       4       1       2
       2       1       3       3       2      14      13       3       4       3       2
       2       1       3       1       1      16       5      13       3      16       3
       2       1       1       2       1       5       9       1       5       7       2
       2       3       3       1       3       9       5      15      11      14       3
       1       3       2       2       2      11      10       6      13      16       2
       3       2       3       2       3      10       5       0       5      12       3
       2       3       1       3       1       4      13       8      16      14       3
       3       3       2       1       3      16       2       5      12       8       3
       2       3       3       1       3      10       2       6      11       8       2
       1       2       1       1       1      12       3       5       4       4       2
       2       3       1       1       3      10      16       9      16       1       3
       1       1       2       1       3       1       7      16       3       6       3
       2       1       1       2       2       8      12       8       0       8       2
       2       3       2       1       2       4       7      15      15       8       3
       1       2       1       3       1       3      10       3       3       5       3
       2       2       3       3       1       6      13       3      13       9       3
       1       1       1       3       1       4      12      16       7      16       2
       1       2       3       3       3       5      16      13       2      10       2
       3       3       2       1       1       3      13      10       5       4       2
       1       3       3       1       3       7       6       8      11       2       2
       2       1       2       3       3      11       0       3      10      11       3
       3       3       1       3       2      15       8      15       0       4       3
       1       3       1       1       3       2      15       7       1      11       2
       2       3       2       1       2       8      11       3      12       1       3
       2       3       2       1       3       1       5       8       7       8       2
       1       3       1       1       1      16       5      16       0       6       2
       3       1       2       3       3       5      13       7       1      13       2
       1       1       1       3       2       6       0       1      16       9       3
       3       3       3       2       1      14      15       7       0      10       2
       3       2       3       2       2       5      16      14      14      11       2
       2       1       3       3       2       5      12      13      16      15       2
       2       2       3       3       1       2      11       5      10       0       3
       1       2       2       3       2       9       3       6      16       8       3
       1       3       2       3       2       0       1       9       8      10       2
       2       2       1       1       2      12       2       6       8      15       2
       3       2       3       2       2      11      15      12       0      10       2
       2       1       3       3       2       6       6       3       3       9       3
       1       3       3       2       3       8       1      12      13       3       2
       3       2       2       2       2      14      12      13       3       0       2
       1       2       2       1       3      10       3      12      16      13       2
       1       3       1       2       2      13      10      15      14       2       2
       1       2       2       1       1       7       8       9      13       8       3
       2       1       3       3       2       9      16       7      15      10       3
       3       1       2       3       1       7       1       2      11       4       3
       1       3       3       3       3       5      10       2       5      14       2
       2       2       3       2       3       5       5      12       2       5       3
       1       1       3       3       3       2       5      13       9       9       2
       2       2       1       2       1      16       6      14      10      10       3
       3       2       1       3       3       2      13      11       2      14       2
       1       1       3       1       1      16      14      10      14       9       2
       3       2       1       3       1       8       3       6       2       6       3
       1       2       3       1       2      16      15       6       8       7       3
       2       1       1       1       1      14       3      15      12       7       2
       3       3       1       3       2       8      12       7       4      15       3
       3       2       3       2       3      11      14      16      12       9       2
       2       1       2       1       2       2       4      13       8       8       3
       3       1       1       2       2      15       9       1      13      10       2
       2       1       1       1       2       9      11       7       7      13       3
       2       1       3       1       2      10       7       0       7      16       3
       3       1       1       1       3       4       4       1       4      14       3
       1       3       2       1       1      14       4      10       0      15       3
       2       1       3       1       2       8       1      16       6      13       3
       1       2       1       1       1      13       7       9       1       6       3
       3       3       2       1       2      12       6       7      10       6       3
       1       1       3       1       1       0      14       9      13      12       2
       3       3       2       2       1       2       0       4       8       4       3
       3       3       3       1       2       0       4      11       8       3       3
       1       2       3       1       2      10      11      10      15       1       3
       1       2       3       2       3      13       1      13       5       9       3
       2       2       3       3       3       3       4       2      15      11       2
       3       2       1       1       2       4       8      15       2      14       2
       2       2       1       3       2       1       1      11       1      10       2
       1       1       3       1       3       1      10      13      10       2       3
       3       1       3       1       3       0       0       4      15      12       3
       1       3       3       3       1       3      15      12      13      13       2
       2       2       3       1       1       4      15      12       5       6       2
       1       3       1       1       2      14       0      13       7      14       2
       2       1       2       1       1       4      16       1       4       9       3
       1       3       3       3       1      13       0      16       6       3       2
       1       2       2       3       3       4      11       3      10       1       3
       3       3       2       2       2       3      14      10      16      12       2
       1       3       2       2       2       2       1      11       8       5       3
       2       2       2       2       3       6       7       2      14       1       2
       2       1       3       2       3      16       2       0       4       0       2
       1       1       2       1       1       0       8      14       7       8       2
       1       1       2       2       1       1       7       7       6       4       2
       3       2       1       1       1       5       2       6      13       2       2
       3       2       1       1       3       7      12      14       4      12       3
       3       3       3       2       2      12      13      14       3       2       3
       1       2       2       3       3      14      13       9      15       9       2
       1       3       1       1       1       5      11       6      10       5       2
       1       1       1       1       1       9      10       7       5       8       3
       1       3       1       1       1      15      14       2      10       5       2
       1       1       1       3       2      15       8      14       1       4       3
       1       3       3       1       1       4       3       9       2       9       2
       1       1       1       2       3       5       7       6       4       1       2
       3       2       2       1       1      15       2       9      16       2       2
       3       1       3       1       1       5       8       5      13       2       2
       1       3       1       3       3       9       9      14       1      13       3
       2       2       1       1       1       1       7       2      13       1       2
       3       3       1       3       1       9      14       4       1      14       3
       2       2       1       3       3      10      12       4       1       3       2
       2       3       3       3       2      15       1       4       4      11       3
       1       2       1       1       2      16       1      13       5      14       3
       1       1       1       3       2       2       9       1       2       3       3
       2       2       2       1       3       8       9       7      14       8       3
       1       3       2       2       2       1       3       3       9      10       2
       3       1       2       2       2      11       0      16      11      11       2
       1       2       2       1       3       0       0       6       1       0       3
       3       1       1       2       3      13      15      10       8      14       3
       1       1       1       3       2       9       0      13      15       4       3
       1       3       2       2       1       8      13      12       5      10       2
       3       3       1       2       1       6      15       8       9      15       3
       1       3       1       2       2      10       6      16      13       3       2
       2       2       2       3       2      14       1       3       0       7       3
       1       2       2       1       2      13       5       8       0      12       2
       2       1       2       1       2       8       7       1      13      15       2
       2       2       1       2       1      15      13       4      14      13       2
       3       2       2       1       3       5       2      15      10       8       2
       2       1       2       3       2       9       8       3      15       7       2
       1       3       2       3       3       5      11      13      11       7       2
       1       2       1       1       3      11      16      15      16       0       3
       2       3       3       3       1      16      14      13      16       4       2
       2       3       1       3       1      15       0      11       7       2       2
       3       2       1       3       2       6       3       4       3      13       2
       1       2       3       1       2       9      14      12       9       2       3
       2       1       1       2       2      12      15       2       0      14       2
       3       1       1       1       1      16      15      14      15       2       2
       2       2       2       2       1      13      12      15       0       3       2
       1       2       3       2       2      15      15       1       3       4       3
       3       2       1       2       3       9      15      10       8       4       2
       2       2       1       1       2       9       4      14       4       5       3
       1       2       2       3       2       1       9      10      11      16       2
       1       3       2       2       1       5       2      14       7       7       3
       3       2       2       2       2       5       0       0      12      15       2
       2       1       1       1       3       2       9       7       2       2       3
       2       2       1       3       1      10      16      15       5      10       3
       2       2       1       2       2      14       4      16       4      16       3
       3       3       1       2       1      11       5      10       9       8       3
       1       3       3       1       3      16       9       8       0      16       2
       1       3       1       2       1      10       0       5      12      12       2
       3       1       2       2       2       1      14       1       1       5       2
       3       3       2       2       1      10      16       3       7       8       2
       1       1       1       1       3       1      16       8      16       9       2
       2       2       3       3       3       6      10       3       8      13       3
       1       2       3       1       1      16      13       9      15      13       2
       2       2       3       2       3       5       6      13      14       0       2
       1       3       1       3       1      14       3      15       4       1       3
       1       1       2       3       2      11      12       9       9      16       2
       1       3       3       3       1      16       7       6       7       2       3
       2       1       3       2       1       1       8       2      13       6       2
       3       2       1       1       2      12       2       5       0       4       3
       1       1       1       2       3       8       9      11      14      11       2
       2       2       2       1       2       9       7       8      15       4       2
       1       1       1       2       3       8      12       5       1       7       2
       3       2       1       3       1       7      13       3       3      12       2
       2       3       2       3       2       5       2       0       2      11       3
       1       1       2       2       1       8       0      14      14      10       3
       2       3       3       1       1       8       0       0      10       2       3
       3       1       2       1       2       2       1       6      12      11       3
       3       3       2       2       3      16      11       5       0      10       2
       1       1       1       3       2       6      14       3      14      12       2
       3       3       1       2       2      10      11       1       5      13       2
       2       2       3       2       3      16       4       4      13      12       2
       1       1       3       1       3       2       5       3       8      14       2
       2       1       1       3       2      13      15      11       3       3       3
       1       1       2       1       3       4       6      15      12      14       3
       1       3       2       1       3       8       1      13       5      12       3
       3       2       3       3       3      13       6       8       6      13       3
       3       3       2       3       2       9       0       0       4       9       3
       1       1       1       1       3       8       2       3       6      15       3
       1       1       2       3       1      11       3       2       7       7       3
       1       2       2       3       3       1       4       8      15       3       2
       1       3       3       2       2      12      16      14       9      10       2
       2       2       3       1       2      14      16       8       3      15       2
       1       1       3       3       2      15       5      15       2       6       3
       2       1       1       1       1       2       1       3       7      12       2
       3       1       2       3       2       5       4       5       9       7       3
       2       2       3       3       1      12       8      14       0       4       3
       2       1       2       2       1       3      13      11       0       9       2
       3       3       3       1       1      15      11       3      14      10       3
       3       3       1       2       1       9       2      15       7       5       2
       1       2       2       3       3       2       1       3      16      10       2
       3       1       1       3       2      15      15      15      11       8       3
       1       1       3       1       1       9      14       6      10      15       2
       1       2       2       1       2      14      10      11       8      11       3
       2       2       3       3       2      15      11       5       8       3       2
       1       3       3       1       1      13      11       9      14       2       2
       3       3       1       3       1       0      14      16       0      16       2
       3       3       3       2       1       4       6       4       6       4       3
       2       1       1       3       2       6       7      10       8      13       2
       3       3       3       1       2       2       4       3      13       7       2
       2       1       2       2       2      10       3       1       0       6       3
       3       2       3       1       3       8      12      11      14       2       2
       3       3       2       3       1      14      11       2       1      16       3
       1       3       2       3       3       6      16      15       7      13       2
       3       2       3       3       3      15       6       7       4       4       2
       2       1       3       1       3       1       4       1      13      14       2
       3       1       1       2       3       9       7       9      11       2       3
       2       1       3       2       2      11       4       9      16       8       2
       1       1       2       2       1       5      10      13      10       8       3
       1       3       2       3       1      15       4      10      13       8       3
       1       3       2       1       1      15       2       7       2       0       2
       3       2       1       1       1       4       0       8       6      11       3
       3       3       1       3       2       9       6       1       1       6       2
       2       3       2       3       3       7       1      15       9      14       3
       3       3       1       3       3       2       4       3      15       2       3
       2       2       2       2       3       3      13       8       2       0       3
       2       3       1       2       3       7      11       4      13      12       2
       1       1       2       2       3      13       8      14      11       3       3
       1       2       1       2       2      13       2      10      16      11       2
       3       3       3       1       1      15      16      15       7       7       3
       3       1       1       2       3      11       1      12      13       5       2
       1       1       3       1       1       2       0       1      15       6       2
     258     248     195     214     277
     296     592     296     296     296
     906     959     624     816    1415