M+/results-log/S3-5-M+/S3-15-5-3-l-M+.log
CPXPARAM_Read_DataCheck                          1
Found incumbent of value 0.000000 after 0.00 sec. (0.04 ticks)
Tried aggregator 1 time.
MIP Presolve modified 1 coefficients.
Reduced MIP has 316 rows, 1505 columns, and 7520 nonzeros.
Reduced MIP has 1505 binaries, 0 generals, 0 SOSs, and 0 indicators.
Presolve time = 0.00 sec. (2.71 ticks)
Probing time = 0.00 sec. (1.64 ticks)
Tried aggregator 1 time.
Reduced MIP has 316 rows, 1505 columns, and 7520 nonzeros.
Reduced MIP has 1505 binaries, 0 generals, 0 SOSs, and 0 indicators.
Presolve time = 0.00 sec. (3.27 ticks)
Probing time = 0.00 sec. (1.64 ticks)
Clique table members: 2732.
MIP emphasis: balance optimality and feasibility.
MIP search method: dynamic search.
Parallel mode: deterministic, using up to 4 threads.
Root relaxation solution time = 0.00 sec. (6.68 ticks)

        Nodes                                         Cuts/
   Node  Left     Objective  IInf  Best Integer    Best Bound    ItCnt     Gap

*     0+    0                            0.0000     9594.0000              --- 
      0     0     3542.2301    10        0.0000     3542.2301      511     --- 
      0     0     2517.9258   222        0.0000     Cuts: 179      900     --- 
*     0+    0                         1748.0000     2517.9258            44.05%
      0     0        cutoff           1748.0000     1748.0000     1348    0.00%
Elapsed time = 0.16 sec. (150.40 ticks, tree = 0.01 MB, solutions = 2)

Clique cuts applied:  309
Cover cuts applied:  4
Mixed integer rounding cuts applied:  15
Zero-half cuts applied:  1
Gomory fractional cuts applied:  1

Root node processing (before b&c):
  Real time             =    0.16 sec. (150.50 ticks)
Parallel b&c, 4 threads:
  Real time             =    0.00 sec. (0.00 ticks)
  Sync time (average)   =    0.00 sec.
  Wait time (average)   =    0.00 sec.
                          ------------
Total (root+branch&cut) =    0.16 sec. (150.50 ticks)
